
;this file is automatically generated: Mon Feb 10 17:01:40 CST 2020

;declarations generated

(declare-fun oclExcludes ( Int Int) Bool)
(declare-fun obj_f85371ff_4675_4dcb_8b56_f08cb51172ff ( Int) Int)
(declare-fun type_74b13e7f_58ea_49b7_b65e_857df1a97585_Class33 ( Int) Bool)
(declare-fun Cardinality ( Int) Int)
(declare-fun class33_Class33IntAttr0 ( Int) Int)
(declare-fun oclSelect ( Int Bool) Int)
(declare-fun Enum0 ( Int) Int)
(declare-fun Enum1 ( Int) Int)
(declare-fun Enum2 ( Int) Int)
(declare-fun container_ ( Int) Int)
(declare-fun oclIncludes ( Int Int) Bool)
(declare-fun ObjAt ( Int Int) Int)

;formula(s) generated
(assert (! (exists ((c1 Int)) (and ( type_74b13e7f_58ea_49b7_b65e_857df1a97585_Class33 c1 )  (< ( class33_Class33IntAttr0 ( obj_f85371ff_4675_4dcb_8b56_f08cb51172ff c1 )  )  5))):named l0))
(assert (exists ((o Int)) ( type_74b13e7f_58ea_49b7_b65e_857df1a97585_Class33 ( obj_f85371ff_4675_4dcb_8b56_f08cb51172ff o )  ) ))

 ;end of formula 